************************************************************************
file with basedata            : me2_.bas
initial value random generator: 2138053764
************************************************************************
projects                      :  1
jobs (incl. supersource/sink ):  12
horizon                       :  72
RESOURCES
  - renewable                 :  2   R
  - nonrenewable              :  0   N
  - doubly constrained        :  0   D
************************************************************************
PROJECT INFORMATION:
pronr.  #jobs rel.date duedate tardcost  MPM-Time
    1     10      0       13        2       13
************************************************************************
PRECEDENCE RELATIONS:
jobnr.    #modes  #successors   successors
   1        1          3           2   3   4
   2        3          3           6   8  11
   3        3          2           5   7
   4        3          3           5   6   8
   5        3          3           9  10  11
   6        3          2           7   9
   7        3          1          10
   8        3          2           9  10
   9        3          1          12
  10        3          1          12
  11        3          1          12
  12        1          0        
************************************************************************
REQUESTS/DURATIONS:
jobnr. mode duration  R 1  R 2
------------------------------------------------------------------------
  1      1     0       0    0
  2      1     2       0    8
         2     4       0    5
         3     4       4    0
  3      1     1       3    0
         2     1       0    5
         3     4       0    4
  4      1     1       0    6
         2     2       6    0
         3     9       0    5
  5      1     2       0    2
         2     6       0    1
         3     7       3    0
  6      1     3       0    6
         2     3       4    0
         3     8       2    0
  7      1     7       5    0
         2     8       0    9
         3     8       4    0
  8      1     2       7    0
         2     7       5    0
         3    10       0    5
  9      1     4       7    0
         2     7       2    0
         3     7       0    3
 10      1     1       4    0
         2     3       2    0
         3     8       0    2
 11      1     1      10    0
         2     7       8    0
         3     7       0    6
 12      1     0       0    0
************************************************************************
RESOURCEAVAILABILITIES:
  R 1  R 2
   11   10
************************************************************************
